; benchmark generated from python API
(set-info :status unknown)
(declare-fun makespan () Int)
(declare-fun 0_y () Int)
(declare-fun 0_x () Int)
(declare-fun ud_1_2 () Bool)
(declare-fun 1_y () Int)
(declare-fun 1_x () Int)
(declare-fun 2_y () Int)
(declare-fun 2_x () Int)
(declare-fun ud_3_2 () Bool)
(declare-fun 3_y () Int)
(declare-fun 3_x () Int)
(declare-fun ud_4_2 () Bool)
(declare-fun 4_y () Int)
(declare-fun 4_x () Int)
(declare-fun ud_5_2 () Bool)
(declare-fun 5_y () Int)
(declare-fun 5_x () Int)
(declare-fun ud_6_2 () Bool)
(declare-fun 6_y () Int)
(declare-fun 6_x () Int)
(declare-fun ud_7_2 () Bool)
(declare-fun 7_y () Int)
(declare-fun 7_x () Int)
(declare-fun ud_8_2 () Bool)
(declare-fun 8_y () Int)
(declare-fun 8_x () Int)
(declare-fun ud_9_2 () Bool)
(declare-fun 9_y () Int)
(declare-fun 9_x () Int)
(declare-fun ud_10_2 () Bool)
(declare-fun lr_1_2 () Bool)
(declare-fun lr_2_1 () Bool)
(declare-fun ud_2_1 () Bool)
(declare-fun lr_1_3 () Bool)
(declare-fun ud_1_3 () Bool)
(declare-fun lr_3_1 () Bool)
(declare-fun ud_3_1 () Bool)
(declare-fun lr_1_4 () Bool)
(declare-fun ud_1_4 () Bool)
(declare-fun lr_4_1 () Bool)
(declare-fun ud_4_1 () Bool)
(declare-fun lr_1_5 () Bool)
(declare-fun ud_1_5 () Bool)
(declare-fun lr_5_1 () Bool)
(declare-fun ud_5_1 () Bool)
(declare-fun lr_1_6 () Bool)
(declare-fun ud_1_6 () Bool)
(declare-fun lr_6_1 () Bool)
(declare-fun ud_6_1 () Bool)
(declare-fun lr_1_7 () Bool)
(declare-fun ud_1_7 () Bool)
(declare-fun lr_7_1 () Bool)
(declare-fun ud_7_1 () Bool)
(declare-fun lr_1_8 () Bool)
(declare-fun ud_1_8 () Bool)
(declare-fun lr_8_1 () Bool)
(declare-fun ud_8_1 () Bool)
(declare-fun lr_1_9 () Bool)
(declare-fun ud_1_9 () Bool)
(declare-fun lr_9_1 () Bool)
(declare-fun ud_9_1 () Bool)
(declare-fun lr_1_10 () Bool)
(declare-fun ud_1_10 () Bool)
(declare-fun lr_10_1 () Bool)
(declare-fun ud_10_1 () Bool)
(declare-fun lr_2_3 () Bool)
(declare-fun ud_2_3 () Bool)
(declare-fun lr_3_2 () Bool)
(declare-fun lr_2_4 () Bool)
(declare-fun ud_2_4 () Bool)
(declare-fun lr_4_2 () Bool)
(declare-fun lr_2_5 () Bool)
(declare-fun ud_2_5 () Bool)
(declare-fun lr_5_2 () Bool)
(declare-fun lr_2_6 () Bool)
(declare-fun ud_2_6 () Bool)
(declare-fun lr_6_2 () Bool)
(declare-fun lr_2_7 () Bool)
(declare-fun ud_2_7 () Bool)
(declare-fun lr_7_2 () Bool)
(declare-fun lr_2_8 () Bool)
(declare-fun ud_2_8 () Bool)
(declare-fun lr_8_2 () Bool)
(declare-fun lr_2_9 () Bool)
(declare-fun ud_2_9 () Bool)
(declare-fun lr_9_2 () Bool)
(declare-fun lr_2_10 () Bool)
(declare-fun ud_2_10 () Bool)
(declare-fun lr_10_2 () Bool)
(declare-fun lr_3_4 () Bool)
(declare-fun ud_3_4 () Bool)
(declare-fun lr_4_3 () Bool)
(declare-fun ud_4_3 () Bool)
(declare-fun lr_3_5 () Bool)
(declare-fun ud_3_5 () Bool)
(declare-fun lr_5_3 () Bool)
(declare-fun ud_5_3 () Bool)
(declare-fun lr_3_6 () Bool)
(declare-fun ud_3_6 () Bool)
(declare-fun lr_6_3 () Bool)
(declare-fun ud_6_3 () Bool)
(declare-fun lr_3_7 () Bool)
(declare-fun ud_3_7 () Bool)
(declare-fun lr_7_3 () Bool)
(declare-fun ud_7_3 () Bool)
(declare-fun lr_3_8 () Bool)
(declare-fun ud_3_8 () Bool)
(declare-fun lr_8_3 () Bool)
(declare-fun ud_8_3 () Bool)
(declare-fun lr_3_9 () Bool)
(declare-fun ud_3_9 () Bool)
(declare-fun lr_9_3 () Bool)
(declare-fun ud_9_3 () Bool)
(declare-fun lr_3_10 () Bool)
(declare-fun ud_3_10 () Bool)
(declare-fun lr_10_3 () Bool)
(declare-fun ud_10_3 () Bool)
(declare-fun lr_4_5 () Bool)
(declare-fun ud_4_5 () Bool)
(declare-fun lr_5_4 () Bool)
(declare-fun ud_5_4 () Bool)
(declare-fun lr_4_6 () Bool)
(declare-fun ud_4_6 () Bool)
(declare-fun lr_6_4 () Bool)
(declare-fun ud_6_4 () Bool)
(declare-fun lr_4_7 () Bool)
(declare-fun ud_4_7 () Bool)
(declare-fun lr_7_4 () Bool)
(declare-fun ud_7_4 () Bool)
(declare-fun lr_4_8 () Bool)
(declare-fun ud_4_8 () Bool)
(declare-fun lr_8_4 () Bool)
(declare-fun ud_8_4 () Bool)
(declare-fun lr_4_9 () Bool)
(declare-fun ud_4_9 () Bool)
(declare-fun lr_9_4 () Bool)
(declare-fun ud_9_4 () Bool)
(declare-fun lr_4_10 () Bool)
(declare-fun ud_4_10 () Bool)
(declare-fun lr_10_4 () Bool)
(declare-fun ud_10_4 () Bool)
(declare-fun lr_5_6 () Bool)
(declare-fun ud_5_6 () Bool)
(declare-fun lr_6_5 () Bool)
(declare-fun ud_6_5 () Bool)
(declare-fun lr_5_7 () Bool)
(declare-fun ud_5_7 () Bool)
(declare-fun lr_7_5 () Bool)
(declare-fun ud_7_5 () Bool)
(declare-fun lr_5_8 () Bool)
(declare-fun ud_5_8 () Bool)
(declare-fun lr_8_5 () Bool)
(declare-fun ud_8_5 () Bool)
(declare-fun lr_5_9 () Bool)
(declare-fun ud_5_9 () Bool)
(declare-fun lr_9_5 () Bool)
(declare-fun ud_9_5 () Bool)
(declare-fun lr_5_10 () Bool)
(declare-fun ud_5_10 () Bool)
(declare-fun lr_10_5 () Bool)
(declare-fun ud_10_5 () Bool)
(declare-fun lr_6_7 () Bool)
(declare-fun ud_6_7 () Bool)
(declare-fun lr_7_6 () Bool)
(declare-fun ud_7_6 () Bool)
(declare-fun lr_6_8 () Bool)
(declare-fun ud_6_8 () Bool)
(declare-fun lr_8_6 () Bool)
(declare-fun ud_8_6 () Bool)
(declare-fun lr_6_9 () Bool)
(declare-fun ud_6_9 () Bool)
(declare-fun lr_9_6 () Bool)
(declare-fun ud_9_6 () Bool)
(declare-fun lr_6_10 () Bool)
(declare-fun ud_6_10 () Bool)
(declare-fun lr_10_6 () Bool)
(declare-fun ud_10_6 () Bool)
(declare-fun lr_7_8 () Bool)
(declare-fun ud_7_8 () Bool)
(declare-fun lr_8_7 () Bool)
(declare-fun ud_8_7 () Bool)
(declare-fun lr_7_9 () Bool)
(declare-fun ud_7_9 () Bool)
(declare-fun lr_9_7 () Bool)
(declare-fun ud_9_7 () Bool)
(declare-fun lr_7_10 () Bool)
(declare-fun ud_7_10 () Bool)
(declare-fun lr_10_7 () Bool)
(declare-fun ud_10_7 () Bool)
(declare-fun lr_8_9 () Bool)
(declare-fun ud_8_9 () Bool)
(declare-fun lr_9_8 () Bool)
(declare-fun ud_9_8 () Bool)
(declare-fun lr_8_10 () Bool)
(declare-fun ud_8_10 () Bool)
(declare-fun lr_10_8 () Bool)
(declare-fun ud_10_8 () Bool)
(declare-fun lr_9_10 () Bool)
(declare-fun ud_9_10 () Bool)
(declare-fun lr_10_9 () Bool)
(declare-fun ud_10_9 () Bool)
(assert
 (>= makespan 15))
(assert
 (<= makespan 20))
(assert
 (let ((?x81957 (+ 0_y 3)))
 (<= ?x81957 makespan)))
(assert
 (let ((?x83239 (+ 0_x 6)))
 (<= ?x83239 15)))
(assert
 (>= 0_x 0))
(assert
 (<= 0_y 17))
(assert
 (>= 0_y 0))
(assert
 (<= 0_x 4))
(assert
 (= ud_1_2 false))
(assert
 (let ((?x83153 (+ 1_y 15)))
 (<= ?x83153 makespan)))
(assert
 (let ((?x82330 (+ 1_x 3)))
 (<= ?x82330 15)))
(assert
 (>= 1_x 0))
(assert
 (<= 1_y 5))
(assert
 (>= 1_y 0))
(assert
 (<= 1_y 2))
(assert
 (let ((?x82500 (+ 2_y 12)))
 (<= ?x82500 makespan)))
(assert
 (let ((?x82487 (+ 2_x 3)))
 (<= ?x82487 15)))
(assert
 (>= 2_x 0))
(assert
 (<= 2_y 8))
(assert
 (>= 2_y 0))
(assert
 (= ud_3_2 false))
(assert
 (let ((?x24588 (+ 3_y 9)))
 (<= ?x24588 makespan)))
(assert
 (let ((?x2182 (+ 3_x 3)))
 (<= ?x2182 15)))
(assert
 (>= 3_x 0))
(assert
 (<= 3_y 11))
(assert
 (>= 3_y 0))
(assert
 (= ud_4_2 false))
(assert
 (let ((?x82860 (+ 4_y 8)))
 (<= ?x82860 makespan)))
(assert
 (let ((?x82914 (+ 4_x 3)))
 (<= ?x82914 15)))
(assert
 (>= 4_x 0))
(assert
 (<= 4_y 12))
(assert
 (>= 4_y 0))
(assert
 (= ud_5_2 false))
(assert
 (let ((?x83126 (+ 5_y 7)))
 (<= ?x83126 makespan)))
(assert
 (let ((?x83167 (+ 5_x 3)))
 (<= ?x83167 15)))
(assert
 (>= 5_x 0))
(assert
 (<= 5_y 13))
(assert
 (>= 5_y 0))
(assert
 (= ud_6_2 false))
(assert
 (let ((?x83285 (+ 6_y 6)))
 (<= ?x83285 makespan)))
(assert
 (let ((?x82452 (+ 6_x 3)))
 (<= ?x82452 15)))
(assert
 (>= 6_x 0))
(assert
 (<= 6_y 14))
(assert
 (>= 6_y 0))
(assert
 (= ud_7_2 false))
(assert
 (let ((?x81939 (+ 7_y 5)))
 (<= ?x81939 makespan)))
(assert
 (let ((?x12212 (+ 7_x 3)))
 (<= ?x12212 15)))
(assert
 (>= 7_x 0))
(assert
 (<= 7_y 15))
(assert
 (>= 7_y 0))
(assert
 (= ud_8_2 false))
(assert
 (let ((?x82050 (+ 8_y 4)))
 (<= ?x82050 makespan)))
(assert
 (let ((?x82061 (+ 8_x 3)))
 (<= ?x82061 15)))
(assert
 (>= 8_x 0))
(assert
 (<= 8_y 16))
(assert
 (>= 8_y 0))
(assert
 (= ud_9_2 false))
(assert
 (let ((?x82141 (+ 9_y 3)))
 (<= ?x82141 makespan)))
(assert
 (let ((?x82222 (+ 9_x 3)))
 (<= ?x82222 15)))
(assert
 (>= 9_x 0))
(assert
 (<= 9_y 17))
(assert
 (>= 9_y 0))
(assert
 (= ud_10_2 false))
(assert
 (= (<= (+ 0_x 6) 1_x) lr_1_2))
(assert
 (= (<= (+ 0_y 3) 1_y) ud_1_2))
(assert
 (= (<= (+ 1_x 3) 0_x) lr_2_1))
(assert
 (= (<= (+ 1_y 15) 0_y) ud_2_1))
(assert
 (or lr_1_2 lr_2_1 ud_1_2 ud_2_1))
(assert
 (let (($x82217 (= ud_1_2 false)))
 (let (($x82605 (< makespan 18)))
 (=> $x82605 $x82217))))
(assert
 (let (($x82605 (< makespan 18)))
 (=> $x82605 (= ud_2_1 false))))
(assert
 (= (<= (+ 0_x 6) 2_x) lr_1_3))
(assert
 (= (<= (+ 0_y 3) 2_y) ud_1_3))
(assert
 (= (<= (+ 2_x 3) 0_x) lr_3_1))
(assert
 (= (<= (+ 2_y 12) 0_y) ud_3_1))
(assert
 (or lr_1_3 lr_3_1 ud_1_3 ud_3_1))
(assert
 (let (($x12458 (< makespan 15)))
 (=> $x12458 (= ud_1_3 false))))
(assert
 (let (($x12458 (< makespan 15)))
 (=> $x12458 (= ud_3_1 false))))
(assert
 (= (<= (+ 0_x 6) 3_x) lr_1_4))
(assert
 (= (<= (+ 0_y 3) 3_y) ud_1_4))
(assert
 (= (<= (+ 3_x 3) 0_x) lr_4_1))
(assert
 (= (<= (+ 3_y 9) 0_y) ud_4_1))
(assert
 (or lr_1_4 lr_4_1 ud_1_4 ud_4_1))
(assert
 (let (($x81827 (< makespan 12)))
 (=> $x81827 (= ud_1_4 false))))
(assert
 (let (($x81827 (< makespan 12)))
 (=> $x81827 (= ud_4_1 false))))
(assert
 (= (<= (+ 0_x 6) 4_x) lr_1_5))
(assert
 (= (<= (+ 0_y 3) 4_y) ud_1_5))
(assert
 (= (<= (+ 4_x 3) 0_x) lr_5_1))
(assert
 (= (<= (+ 4_y 8) 0_y) ud_5_1))
(assert
 (or lr_1_5 lr_5_1 ud_1_5 ud_5_1))
(assert
 (let (($x82479 (< makespan 11)))
 (=> $x82479 (= ud_1_5 false))))
(assert
 (let (($x82479 (< makespan 11)))
 (=> $x82479 (= ud_5_1 false))))
(assert
 (= (<= (+ 0_x 6) 5_x) lr_1_6))
(assert
 (= (<= (+ 0_y 3) 5_y) ud_1_6))
(assert
 (= (<= (+ 5_x 3) 0_x) lr_6_1))
(assert
 (= (<= (+ 5_y 7) 0_y) ud_6_1))
(assert
 (or lr_1_6 lr_6_1 ud_1_6 ud_6_1))
(assert
 (let (($x82510 (< makespan 10)))
 (=> $x82510 (= ud_1_6 false))))
(assert
 (let (($x82510 (< makespan 10)))
 (=> $x82510 (= ud_6_1 false))))
(assert
 (= (<= (+ 0_x 6) 6_x) lr_1_7))
(assert
 (= (<= (+ 0_y 3) 6_y) ud_1_7))
(assert
 (= (<= (+ 6_x 3) 0_x) lr_7_1))
(assert
 (= (<= (+ 6_y 6) 0_y) ud_7_1))
(assert
 (or lr_1_7 lr_7_1 ud_1_7 ud_7_1))
(assert
 (let (($x82375 (< makespan 9)))
 (=> $x82375 (= ud_1_7 false))))
(assert
 (let (($x82375 (< makespan 9)))
 (=> $x82375 (= ud_7_1 false))))
(assert
 (= (<= (+ 0_x 6) 7_x) lr_1_8))
(assert
 (= (<= (+ 0_y 3) 7_y) ud_1_8))
(assert
 (= (<= (+ 7_x 3) 0_x) lr_8_1))
(assert
 (= (<= (+ 7_y 5) 0_y) ud_8_1))
(assert
 (or lr_1_8 lr_8_1 ud_1_8 ud_8_1))
(assert
 (let (($x5410 (< makespan 8)))
 (=> $x5410 (= ud_1_8 false))))
(assert
 (let (($x5410 (< makespan 8)))
 (=> $x5410 (= ud_8_1 false))))
(assert
 (= (<= (+ 0_x 6) 8_x) lr_1_9))
(assert
 (= (<= (+ 0_y 3) 8_y) ud_1_9))
(assert
 (= (<= (+ 8_x 3) 0_x) lr_9_1))
(assert
 (= (<= (+ 8_y 4) 0_y) ud_9_1))
(assert
 (or lr_1_9 lr_9_1 ud_1_9 ud_9_1))
(assert
 (let (($x7274 (< makespan 7)))
 (=> $x7274 (= ud_1_9 false))))
(assert
 (let (($x7274 (< makespan 7)))
 (=> $x7274 (= ud_9_1 false))))
(assert
 (= (<= (+ 0_x 6) 9_x) lr_1_10))
(assert
 (= (<= (+ 0_y 3) 9_y) ud_1_10))
(assert
 (= (<= (+ 9_x 3) 0_x) lr_10_1))
(assert
 (= (<= (+ 9_y 3) 0_y) ud_10_1))
(assert
 (or lr_1_10 lr_10_1 ud_1_10 ud_10_1))
(assert
 (let (($x81744 (< makespan 6)))
 (=> $x81744 (= ud_1_10 false))))
(assert
 (let (($x81744 (< makespan 6)))
 (=> $x81744 (= ud_10_1 false))))
(assert
 (= (<= (+ 1_x 3) 2_x) lr_2_3))
(assert
 (= (<= (+ 1_y 15) 2_y) ud_2_3))
(assert
 (= (<= (+ 2_x 3) 1_x) lr_3_2))
(assert
 (= (<= (+ 2_y 12) 1_y) ud_3_2))
(assert
 (or lr_2_3 lr_3_2 ud_2_3 ud_3_2))
(assert
 (let (($x83049 (< makespan 27)))
 (=> $x83049 (= ud_2_3 false))))
(assert
 (let (($x82641 (= ud_3_2 false)))
 (let (($x83049 (< makespan 27)))
 (=> $x83049 $x82641))))
(assert
 (= (<= (+ 1_x 3) 3_x) lr_2_4))
(assert
 (= (<= (+ 1_y 15) 3_y) ud_2_4))
(assert
 (= (<= (+ 3_x 3) 1_x) lr_4_2))
(assert
 (= (<= (+ 3_y 9) 1_y) ud_4_2))
(assert
 (or lr_2_4 lr_4_2 ud_2_4 ud_4_2))
(assert
 (let (($x81763 (< makespan 24)))
 (=> $x81763 (= ud_2_4 false))))
(assert
 (let (($x11294 (= ud_4_2 false)))
 (let (($x81763 (< makespan 24)))
 (=> $x81763 $x11294))))
(assert
 (= (<= (+ 1_x 3) 4_x) lr_2_5))
(assert
 (= (<= (+ 1_y 15) 4_y) ud_2_5))
(assert
 (= (<= (+ 4_x 3) 1_x) lr_5_2))
(assert
 (= (<= (+ 4_y 8) 1_y) ud_5_2))
(assert
 (or lr_2_5 lr_5_2 ud_2_5 ud_5_2))
(assert
 (let (($x1957 (< makespan 23)))
 (=> $x1957 (= ud_2_5 false))))
(assert
 (let (($x83091 (= ud_5_2 false)))
 (let (($x1957 (< makespan 23)))
 (=> $x1957 $x83091))))
(assert
 (= (<= (+ 1_x 3) 5_x) lr_2_6))
(assert
 (= (<= (+ 1_y 15) 5_y) ud_2_6))
(assert
 (= (<= (+ 5_x 3) 1_x) lr_6_2))
(assert
 (= (<= (+ 5_y 7) 1_y) ud_6_2))
(assert
 (or lr_2_6 lr_6_2 ud_2_6 ud_6_2))
(assert
 (let (($x83337 (< makespan 22)))
 (=> $x83337 (= ud_2_6 false))))
(assert
 (let (($x9751 (= ud_6_2 false)))
 (let (($x83337 (< makespan 22)))
 (=> $x83337 $x9751))))
(assert
 (= (<= (+ 1_x 3) 6_x) lr_2_7))
(assert
 (= (<= (+ 1_y 15) 6_y) ud_2_7))
(assert
 (= (<= (+ 6_x 3) 1_x) lr_7_2))
(assert
 (= (<= (+ 6_y 6) 1_y) ud_7_2))
(assert
 (or lr_2_7 lr_7_2 ud_2_7 ud_7_2))
(assert
 (let (($x82065 (< makespan 21)))
 (=> $x82065 (= ud_2_7 false))))
(assert
 (let (($x3675 (= ud_7_2 false)))
 (let (($x82065 (< makespan 21)))
 (=> $x82065 $x3675))))
(assert
 (= (<= (+ 1_x 3) 7_x) lr_2_8))
(assert
 (= (<= (+ 1_y 15) 7_y) ud_2_8))
(assert
 (= (<= (+ 7_x 3) 1_x) lr_8_2))
(assert
 (= (<= (+ 7_y 5) 1_y) ud_8_2))
(assert
 (or lr_2_8 lr_8_2 ud_2_8 ud_8_2))
(assert
 (let (($x82569 (< makespan 20)))
 (=> $x82569 (= ud_2_8 false))))
(assert
 (let (($x82002 (= ud_8_2 false)))
 (let (($x82569 (< makespan 20)))
 (=> $x82569 $x82002))))
(assert
 (= (<= (+ 1_x 3) 8_x) lr_2_9))
(assert
 (= (<= (+ 1_y 15) 8_y) ud_2_9))
(assert
 (= (<= (+ 8_x 3) 1_x) lr_9_2))
(assert
 (= (<= (+ 8_y 4) 1_y) ud_9_2))
(assert
 (or lr_2_9 lr_9_2 ud_2_9 ud_9_2))
(assert
 (let (($x8369 (< makespan 19)))
 (=> $x8369 (= ud_2_9 false))))
(assert
 (let (($x82978 (= ud_9_2 false)))
 (let (($x8369 (< makespan 19)))
 (=> $x8369 $x82978))))
(assert
 (= (<= (+ 1_x 3) 9_x) lr_2_10))
(assert
 (= (<= (+ 1_y 15) 9_y) ud_2_10))
(assert
 (= (<= (+ 9_x 3) 1_x) lr_10_2))
(assert
 (= (<= (+ 9_y 3) 1_y) ud_10_2))
(assert
 (or lr_2_10 lr_10_2 ud_2_10 ud_10_2))
(assert
 (let (($x82605 (< makespan 18)))
 (=> $x82605 (= ud_2_10 false))))
(assert
 (let (($x83033 (= ud_10_2 false)))
 (let (($x82605 (< makespan 18)))
 (=> $x82605 $x83033))))
(assert
 (= (<= (+ 2_x 3) 3_x) lr_3_4))
(assert
 (= (<= (+ 2_y 12) 3_y) ud_3_4))
(assert
 (= (<= (+ 3_x 3) 2_x) lr_4_3))
(assert
 (= (<= (+ 3_y 9) 2_y) ud_4_3))
(assert
 (or lr_3_4 lr_4_3 ud_3_4 ud_4_3))
(assert
 (let (($x82065 (< makespan 21)))
 (=> $x82065 (= ud_3_4 false))))
(assert
 (let (($x82065 (< makespan 21)))
 (=> $x82065 (= ud_4_3 false))))
(assert
 (= (<= (+ 2_x 3) 4_x) lr_3_5))
(assert
 (= (<= (+ 2_y 12) 4_y) ud_3_5))
(assert
 (= (<= (+ 4_x 3) 2_x) lr_5_3))
(assert
 (= (<= (+ 4_y 8) 2_y) ud_5_3))
(assert
 (or lr_3_5 lr_5_3 ud_3_5 ud_5_3))
(assert
 (let (($x82569 (< makespan 20)))
 (=> $x82569 (= ud_3_5 false))))
(assert
 (let (($x82569 (< makespan 20)))
 (=> $x82569 (= ud_5_3 false))))
(assert
 (= (<= (+ 2_x 3) 5_x) lr_3_6))
(assert
 (= (<= (+ 2_y 12) 5_y) ud_3_6))
(assert
 (= (<= (+ 5_x 3) 2_x) lr_6_3))
(assert
 (= (<= (+ 5_y 7) 2_y) ud_6_3))
(assert
 (or lr_3_6 lr_6_3 ud_3_6 ud_6_3))
(assert
 (let (($x8369 (< makespan 19)))
 (=> $x8369 (= ud_3_6 false))))
(assert
 (let (($x8369 (< makespan 19)))
 (=> $x8369 (= ud_6_3 false))))
(assert
 (= (<= (+ 2_x 3) 6_x) lr_3_7))
(assert
 (= (<= (+ 2_y 12) 6_y) ud_3_7))
(assert
 (= (<= (+ 6_x 3) 2_x) lr_7_3))
(assert
 (= (<= (+ 6_y 6) 2_y) ud_7_3))
(assert
 (or lr_3_7 lr_7_3 ud_3_7 ud_7_3))
(assert
 (let (($x82605 (< makespan 18)))
 (=> $x82605 (= ud_3_7 false))))
(assert
 (let (($x82605 (< makespan 18)))
 (=> $x82605 (= ud_7_3 false))))
(assert
 (= (<= (+ 2_x 3) 7_x) lr_3_8))
(assert
 (= (<= (+ 2_y 12) 7_y) ud_3_8))
(assert
 (= (<= (+ 7_x 3) 2_x) lr_8_3))
(assert
 (= (<= (+ 7_y 5) 2_y) ud_8_3))
(assert
 (or lr_3_8 lr_8_3 ud_3_8 ud_8_3))
(assert
 (let (($x81898 (< makespan 17)))
 (=> $x81898 (= ud_3_8 false))))
(assert
 (let (($x81898 (< makespan 17)))
 (=> $x81898 (= ud_8_3 false))))
(assert
 (= (<= (+ 2_x 3) 8_x) lr_3_9))
(assert
 (= (<= (+ 2_y 12) 8_y) ud_3_9))
(assert
 (= (<= (+ 8_x 3) 2_x) lr_9_3))
(assert
 (= (<= (+ 8_y 4) 2_y) ud_9_3))
(assert
 (or lr_3_9 lr_9_3 ud_3_9 ud_9_3))
(assert
 (let (($x81723 (< makespan 16)))
 (=> $x81723 (= ud_3_9 false))))
(assert
 (let (($x81723 (< makespan 16)))
 (=> $x81723 (= ud_9_3 false))))
(assert
 (= (<= (+ 2_x 3) 9_x) lr_3_10))
(assert
 (= (<= (+ 2_y 12) 9_y) ud_3_10))
(assert
 (= (<= (+ 9_x 3) 2_x) lr_10_3))
(assert
 (= (<= (+ 9_y 3) 2_y) ud_10_3))
(assert
 (or lr_3_10 lr_10_3 ud_3_10 ud_10_3))
(assert
 (let (($x12458 (< makespan 15)))
 (=> $x12458 (= ud_3_10 false))))
(assert
 (let (($x12458 (< makespan 15)))
 (=> $x12458 (= ud_10_3 false))))
(assert
 (= (<= (+ 3_x 3) 4_x) lr_4_5))
(assert
 (= (<= (+ 3_y 9) 4_y) ud_4_5))
(assert
 (= (<= (+ 4_x 3) 3_x) lr_5_4))
(assert
 (= (<= (+ 4_y 8) 3_y) ud_5_4))
(assert
 (or lr_4_5 lr_5_4 ud_4_5 ud_5_4))
(assert
 (let (($x81898 (< makespan 17)))
 (=> $x81898 (= ud_4_5 false))))
(assert
 (let (($x81898 (< makespan 17)))
 (=> $x81898 (= ud_5_4 false))))
(assert
 (= (<= (+ 3_x 3) 5_x) lr_4_6))
(assert
 (= (<= (+ 3_y 9) 5_y) ud_4_6))
(assert
 (= (<= (+ 5_x 3) 3_x) lr_6_4))
(assert
 (= (<= (+ 5_y 7) 3_y) ud_6_4))
(assert
 (or lr_4_6 lr_6_4 ud_4_6 ud_6_4))
(assert
 (let (($x81723 (< makespan 16)))
 (=> $x81723 (= ud_4_6 false))))
(assert
 (let (($x81723 (< makespan 16)))
 (=> $x81723 (= ud_6_4 false))))
(assert
 (= (<= (+ 3_x 3) 6_x) lr_4_7))
(assert
 (= (<= (+ 3_y 9) 6_y) ud_4_7))
(assert
 (= (<= (+ 6_x 3) 3_x) lr_7_4))
(assert
 (= (<= (+ 6_y 6) 3_y) ud_7_4))
(assert
 (or lr_4_7 lr_7_4 ud_4_7 ud_7_4))
(assert
 (let (($x12458 (< makespan 15)))
 (=> $x12458 (= ud_4_7 false))))
(assert
 (let (($x12458 (< makespan 15)))
 (=> $x12458 (= ud_7_4 false))))
(assert
 (= (<= (+ 3_x 3) 7_x) lr_4_8))
(assert
 (= (<= (+ 3_y 9) 7_y) ud_4_8))
(assert
 (= (<= (+ 7_x 3) 3_x) lr_8_4))
(assert
 (= (<= (+ 7_y 5) 3_y) ud_8_4))
(assert
 (or lr_4_8 lr_8_4 ud_4_8 ud_8_4))
(assert
 (let (($x957 (< makespan 14)))
 (=> $x957 (= ud_4_8 false))))
(assert
 (let (($x957 (< makespan 14)))
 (=> $x957 (= ud_8_4 false))))
(assert
 (= (<= (+ 3_x 3) 8_x) lr_4_9))
(assert
 (= (<= (+ 3_y 9) 8_y) ud_4_9))
(assert
 (= (<= (+ 8_x 3) 3_x) lr_9_4))
(assert
 (= (<= (+ 8_y 4) 3_y) ud_9_4))
(assert
 (or lr_4_9 lr_9_4 ud_4_9 ud_9_4))
(assert
 (let (($x82024 (< makespan 13)))
 (=> $x82024 (= ud_4_9 false))))
(assert
 (let (($x82024 (< makespan 13)))
 (=> $x82024 (= ud_9_4 false))))
(assert
 (= (<= (+ 3_x 3) 9_x) lr_4_10))
(assert
 (= (<= (+ 3_y 9) 9_y) ud_4_10))
(assert
 (= (<= (+ 9_x 3) 3_x) lr_10_4))
(assert
 (= (<= (+ 9_y 3) 3_y) ud_10_4))
(assert
 (or lr_4_10 lr_10_4 ud_4_10 ud_10_4))
(assert
 (let (($x81827 (< makespan 12)))
 (=> $x81827 (= ud_4_10 false))))
(assert
 (let (($x81827 (< makespan 12)))
 (=> $x81827 (= ud_10_4 false))))
(assert
 (= (<= (+ 4_x 3) 5_x) lr_5_6))
(assert
 (= (<= (+ 4_y 8) 5_y) ud_5_6))
(assert
 (= (<= (+ 5_x 3) 4_x) lr_6_5))
(assert
 (= (<= (+ 5_y 7) 4_y) ud_6_5))
(assert
 (or lr_5_6 lr_6_5 ud_5_6 ud_6_5))
(assert
 (let (($x12458 (< makespan 15)))
 (=> $x12458 (= ud_5_6 false))))
(assert
 (let (($x12458 (< makespan 15)))
 (=> $x12458 (= ud_6_5 false))))
(assert
 (= (<= (+ 4_x 3) 6_x) lr_5_7))
(assert
 (= (<= (+ 4_y 8) 6_y) ud_5_7))
(assert
 (= (<= (+ 6_x 3) 4_x) lr_7_5))
(assert
 (= (<= (+ 6_y 6) 4_y) ud_7_5))
(assert
 (or lr_5_7 lr_7_5 ud_5_7 ud_7_5))
(assert
 (let (($x957 (< makespan 14)))
 (=> $x957 (= ud_5_7 false))))
(assert
 (let (($x957 (< makespan 14)))
 (=> $x957 (= ud_7_5 false))))
(assert
 (= (<= (+ 4_x 3) 7_x) lr_5_8))
(assert
 (= (<= (+ 4_y 8) 7_y) ud_5_8))
(assert
 (= (<= (+ 7_x 3) 4_x) lr_8_5))
(assert
 (= (<= (+ 7_y 5) 4_y) ud_8_5))
(assert
 (or lr_5_8 lr_8_5 ud_5_8 ud_8_5))
(assert
 (let (($x82024 (< makespan 13)))
 (=> $x82024 (= ud_5_8 false))))
(assert
 (let (($x82024 (< makespan 13)))
 (=> $x82024 (= ud_8_5 false))))
(assert
 (= (<= (+ 4_x 3) 8_x) lr_5_9))
(assert
 (= (<= (+ 4_y 8) 8_y) ud_5_9))
(assert
 (= (<= (+ 8_x 3) 4_x) lr_9_5))
(assert
 (= (<= (+ 8_y 4) 4_y) ud_9_5))
(assert
 (or lr_5_9 lr_9_5 ud_5_9 ud_9_5))
(assert
 (let (($x81827 (< makespan 12)))
 (=> $x81827 (= ud_5_9 false))))
(assert
 (let (($x81827 (< makespan 12)))
 (=> $x81827 (= ud_9_5 false))))
(assert
 (= (<= (+ 4_x 3) 9_x) lr_5_10))
(assert
 (= (<= (+ 4_y 8) 9_y) ud_5_10))
(assert
 (= (<= (+ 9_x 3) 4_x) lr_10_5))
(assert
 (= (<= (+ 9_y 3) 4_y) ud_10_5))
(assert
 (or lr_5_10 lr_10_5 ud_5_10 ud_10_5))
(assert
 (let (($x82479 (< makespan 11)))
 (=> $x82479 (= ud_5_10 false))))
(assert
 (let (($x82479 (< makespan 11)))
 (=> $x82479 (= ud_10_5 false))))
(assert
 (= (<= (+ 5_x 3) 6_x) lr_6_7))
(assert
 (= (<= (+ 5_y 7) 6_y) ud_6_7))
(assert
 (= (<= (+ 6_x 3) 5_x) lr_7_6))
(assert
 (= (<= (+ 6_y 6) 5_y) ud_7_6))
(assert
 (or lr_6_7 lr_7_6 ud_6_7 ud_7_6))
(assert
 (let (($x82024 (< makespan 13)))
 (=> $x82024 (= ud_6_7 false))))
(assert
 (let (($x82024 (< makespan 13)))
 (=> $x82024 (= ud_7_6 false))))
(assert
 (= (<= (+ 5_x 3) 7_x) lr_6_8))
(assert
 (= (<= (+ 5_y 7) 7_y) ud_6_8))
(assert
 (= (<= (+ 7_x 3) 5_x) lr_8_6))
(assert
 (= (<= (+ 7_y 5) 5_y) ud_8_6))
(assert
 (or lr_6_8 lr_8_6 ud_6_8 ud_8_6))
(assert
 (let (($x81827 (< makespan 12)))
 (=> $x81827 (= ud_6_8 false))))
(assert
 (let (($x81827 (< makespan 12)))
 (=> $x81827 (= ud_8_6 false))))
(assert
 (= (<= (+ 5_x 3) 8_x) lr_6_9))
(assert
 (= (<= (+ 5_y 7) 8_y) ud_6_9))
(assert
 (= (<= (+ 8_x 3) 5_x) lr_9_6))
(assert
 (= (<= (+ 8_y 4) 5_y) ud_9_6))
(assert
 (or lr_6_9 lr_9_6 ud_6_9 ud_9_6))
(assert
 (let (($x82479 (< makespan 11)))
 (=> $x82479 (= ud_6_9 false))))
(assert
 (let (($x82479 (< makespan 11)))
 (=> $x82479 (= ud_9_6 false))))
(assert
 (= (<= (+ 5_x 3) 9_x) lr_6_10))
(assert
 (= (<= (+ 5_y 7) 9_y) ud_6_10))
(assert
 (= (<= (+ 9_x 3) 5_x) lr_10_6))
(assert
 (= (<= (+ 9_y 3) 5_y) ud_10_6))
(assert
 (or lr_6_10 lr_10_6 ud_6_10 ud_10_6))
(assert
 (let (($x82510 (< makespan 10)))
 (=> $x82510 (= ud_6_10 false))))
(assert
 (let (($x82510 (< makespan 10)))
 (=> $x82510 (= ud_10_6 false))))
(assert
 (= (<= (+ 6_x 3) 7_x) lr_7_8))
(assert
 (= (<= (+ 6_y 6) 7_y) ud_7_8))
(assert
 (= (<= (+ 7_x 3) 6_x) lr_8_7))
(assert
 (= (<= (+ 7_y 5) 6_y) ud_8_7))
(assert
 (or lr_7_8 lr_8_7 ud_7_8 ud_8_7))
(assert
 (let (($x82479 (< makespan 11)))
 (=> $x82479 (= ud_7_8 false))))
(assert
 (let (($x82479 (< makespan 11)))
 (=> $x82479 (= ud_8_7 false))))
(assert
 (= (<= (+ 6_x 3) 8_x) lr_7_9))
(assert
 (= (<= (+ 6_y 6) 8_y) ud_7_9))
(assert
 (= (<= (+ 8_x 3) 6_x) lr_9_7))
(assert
 (= (<= (+ 8_y 4) 6_y) ud_9_7))
(assert
 (or lr_7_9 lr_9_7 ud_7_9 ud_9_7))
(assert
 (let (($x82510 (< makespan 10)))
 (=> $x82510 (= ud_7_9 false))))
(assert
 (let (($x82510 (< makespan 10)))
 (=> $x82510 (= ud_9_7 false))))
(assert
 (= (<= (+ 6_x 3) 9_x) lr_7_10))
(assert
 (= (<= (+ 6_y 6) 9_y) ud_7_10))
(assert
 (= (<= (+ 9_x 3) 6_x) lr_10_7))
(assert
 (= (<= (+ 9_y 3) 6_y) ud_10_7))
(assert
 (or lr_7_10 lr_10_7 ud_7_10 ud_10_7))
(assert
 (let (($x82375 (< makespan 9)))
 (=> $x82375 (= ud_7_10 false))))
(assert
 (let (($x82375 (< makespan 9)))
 (=> $x82375 (= ud_10_7 false))))
(assert
 (= (<= (+ 7_x 3) 8_x) lr_8_9))
(assert
 (= (<= (+ 7_y 5) 8_y) ud_8_9))
(assert
 (= (<= (+ 8_x 3) 7_x) lr_9_8))
(assert
 (= (<= (+ 8_y 4) 7_y) ud_9_8))
(assert
 (or lr_8_9 lr_9_8 ud_8_9 ud_9_8))
(assert
 (let (($x82375 (< makespan 9)))
 (=> $x82375 (= ud_8_9 false))))
(assert
 (let (($x82375 (< makespan 9)))
 (=> $x82375 (= ud_9_8 false))))
(assert
 (= (<= (+ 7_x 3) 9_x) lr_8_10))
(assert
 (= (<= (+ 7_y 5) 9_y) ud_8_10))
(assert
 (= (<= (+ 9_x 3) 7_x) lr_10_8))
(assert
 (= (<= (+ 9_y 3) 7_y) ud_10_8))
(assert
 (or lr_8_10 lr_10_8 ud_8_10 ud_10_8))
(assert
 (let (($x5410 (< makespan 8)))
 (=> $x5410 (= ud_8_10 false))))
(assert
 (let (($x5410 (< makespan 8)))
 (=> $x5410 (= ud_10_8 false))))
(assert
 (= (<= (+ 8_x 3) 9_x) lr_9_10))
(assert
 (= (<= (+ 8_y 4) 9_y) ud_9_10))
(assert
 (= (<= (+ 9_x 3) 8_x) lr_10_9))
(assert
 (= (<= (+ 9_y 3) 8_y) ud_10_9))
(assert
 (or lr_9_10 lr_10_9 ud_9_10 ud_10_9))
(assert
 (let (($x7274 (< makespan 7)))
 (=> $x7274 (= ud_9_10 false))))
(assert
 (let (($x7274 (< makespan 7)))
 (=> $x7274 (= ud_10_9 false))))
(check-sat)
